147270
0,86,43,65,58,9,26,27,57,75,88,92,11,91,22,79,56,82,73,101,13,46,60,14,3,102,34,74,62,31,17,6,52,83,48,36,38,70,53,35,84,47,21,20,16,89,63,15,55,19,39,12,64,54,28,29,4,51,96,7,105,30,97,68,87,5,45,76,85,24,80,41,18,8,25,33,49,67,98,99,50,81,32,71,44,61,1,72,94,40,10,66,103,37,104,100,69,93,77,2,95,59,90,78,42,23,0